/*********************************************
    * Lab01 - simple
    * Author: Coso
    * Creation Date: Mar, 2019
    *********************************************/
instance_name = "small_instance_23_simple";

d = 2;
r = 3;

SCj = [38 29];
Dk = [11 30 26];

Cjk = [[83 64 30]
 [83 82 67]];
